c Random generated cnf formula, satisfiable: true
p cnf 10 50
2 3 -1 0
2 -10 -6 0
3 6 5 0
-5 -3 -10 0
7 10 9 0
-6 -5 -9 0
-2 4 -6 0
7 5 4 0
5 1 4 0
-7 -9 10 0
3 2 5 0
-1 -7 2 0
10 5 -6 0
10 1 3 0
-1 9 -4 0
-8 -2 -7 0
-4 10 5 0
-6 3 -9 0
-9 -5 8 0
-7 -9 1 0
-5 -8 4 0
4 5 9 0
5 -10 8 0
-10 2 -8 0
-6 5 -8 0
4 -8 3 0
9 5 -2 0
3 -9 2 0
5 3 4 0
1 -8 2 0
7 -2 -9 0
5 1 -6 0
4 7 -8 0
-2 -6 -8 0
-6 9 -2 0
-3 9 -5 0
-7 -2 10 0
1 9 8 0
7 4 -9 0
-8 -7 4 0
-5 10 8 0
-9 -2 6 0
-5 1 -7 0
-7 8 4 0
-8 -1 9 0
-9 -1 -5 0
-9 3 -4 0
10 8 -4 0
9 -7 -3 0
9 7 2 0
